30 61
29
11 5 10 52
11 4 10 57
10 19 20 30
10 7 10 45
9 16 21 0
9 9 21 21
8 5 21 16
7 25 0 0
7 13 7 0
7 12 23 49
7 7 7 28
7 5 14 1
6 24 4 37
6 18 14 27
6 11 0 25
6 10 7 18
6 5 7 13
5 21 16 6
4 23 0 36
4 10 10 35
4 2 0 59
4 2 6 35
4 1 14 0
3 6 13 14
3 5 13 20
2 12 21 49
2 7 14 6
2 1 18 0
1 4 29 16

301
True
NOT_OPTIMAL